c generated by sgen
p cnf 85 180
-2 -3 -4 0
-1 -3 -4 0
-1 -2 -4 0
-1 -2 -3 0
-6 -7 -8 0
-5 -7 -8 0
-5 -6 -8 0
-5 -6 -7 0
-10 -11 -12 0
-9 -11 -12 0
-9 -10 -12 0
-9 -10 -11 0
-14 -15 -16 0
-13 -15 -16 0
-13 -14 -16 0
-13 -14 -15 0
-18 -19 -20 0
-17 -19 -20 0
-17 -18 -20 0
-17 -18 -19 0
-22 -23 -24 0
-21 -23 -24 0
-21 -22 -24 0
-21 -22 -23 0
-26 -27 -28 0
-25 -27 -28 0
-25 -26 -28 0
-25 -26 -27 0
-30 -31 -32 0
-29 -31 -32 0
-29 -30 -32 0
-29 -30 -31 0
-34 -35 -36 0
-33 -35 -36 0
-33 -34 -36 0
-33 -34 -35 0
-38 -39 -40 0
-37 -39 -40 0
-37 -38 -40 0
-37 -38 -39 0
-42 -43 -44 0
-41 -43 -44 0
-41 -42 -44 0
-41 -42 -43 0
-46 -47 -48 0
-45 -47 -48 0
-45 -46 -48 0
-45 -46 -47 0
-50 -51 -52 0
-49 -51 -52 0
-49 -50 -52 0
-49 -50 -51 0
-54 -55 -56 0
-53 -55 -56 0
-53 -54 -56 0
-53 -54 -55 0
-58 -59 -60 0
-57 -59 -60 0
-57 -58 -60 0
-57 -58 -59 0
-62 -63 -64 0
-61 -63 -64 0
-61 -62 -64 0
-61 -62 -63 0
-66 -67 -68 0
-65 -67 -68 0
-65 -66 -68 0
-65 -66 -67 0
-70 -71 -72 0
-69 -71 -72 0
-69 -70 -72 0
-69 -70 -71 0
-74 -75 -76 0
-73 -75 -76 0
-73 -74 -76 0
-73 -74 -75 0
-78 -79 -80 0
-77 -79 -80 0
-77 -78 -80 0
-77 -78 -79 0
-81 -82 -83 0
-81 -82 -84 0
-81 -82 -85 0
-81 -83 -84 0
-81 -83 -85 0
-81 -84 -85 0
-82 -83 -84 0
-82 -83 -85 0
-82 -84 -85 0
-83 -84 -85 0
6 60 70 0
36 60 70 0
36 6 70 0
36 6 60 0
73 44 40 0
56 44 40 0
56 73 40 0
56 73 44 0
3 64 72 0
13 64 72 0
13 3 72 0
13 3 64 0
19 55 46 0
57 55 46 0
57 19 46 0
57 19 55 0
28 8 65 0
11 8 65 0
11 28 65 0
11 28 8 0
38 27 35 0
82 27 35 0
82 38 35 0
82 38 27 0
58 24 84 0
12 24 84 0
12 58 84 0
12 58 24 0
14 5 50 0
54 5 50 0
54 14 50 0
54 14 5 0
1 22 32 0
33 22 32 0
33 1 32 0
33 1 22 0
43 34 10 0
66 34 10 0
66 43 10 0
66 43 34 0
68 63 39 0
45 63 39 0
45 68 39 0
45 68 63 0
49 74 77 0
59 74 77 0
59 49 77 0
59 49 74 0
18 7 29 0
41 7 29 0
41 18 29 0
41 18 7 0
42 69 81 0
47 69 81 0
47 42 81 0
47 42 69 0
62 79 53 0
85 79 53 0
85 62 53 0
85 62 79 0
15 23 67 0
80 23 67 0
80 15 67 0
80 15 23 0
48 26 78 0
4 26 78 0
4 48 78 0
4 48 26 0
9 51 30 0
71 51 30 0
71 9 30 0
71 9 51 0
37 2 52 0
17 2 52 0
17 37 52 0
17 37 2 0
76 16 83 0
31 16 83 0
31 76 83 0
31 76 16 0
61 20 25 0
61 20 75 0
61 20 21 0
61 25 75 0
61 25 21 0
61 75 21 0
20 25 75 0
20 25 21 0
20 75 21 0
25 75 21 0
